2	25
383	418	195	958	968	62	51	362	742	10	932	245	408	223	471	192	696	289	232	349	237	295	969	313	46	
562	799	670	945	278	832	764	641	441	936	210	653	58	228	666	666	865	767	419	701	908	219	112	973	403	
3679	3679	
